param set_len = 10;
param target_sum = 3216950566;
param values := [1] 735411361 [2] 385188427 [3] 650946638 [4] 436657888 [5] 401141782 [6] 638411513 [7] 755523166 [8] 259936671 [9] 818884650 [10] 714534478 ;
